language ESSENCE' 1.0

letting jobs = 102
letting horizon = 796
letting resourcesRenew = 2
letting resourcesNonrenew = 2
letting resourceLimits = [16, 15, 531, 587]
letting successors = [[2, 3, 4, 5, 6, 7, 8, 9, 11, 12, 13, 14, 16, 18, 19, 20], [41, 37, 35, 34, 28, 27, 26, 24, 22, 21, 15], [51, 40, 39, 37, 30, 29, 24, 17, 15, 10], [48, 46, 39, 37, 35, 33, 30, 17, 15], [51, 40, 39, 31, 29, 24, 10], [71, 56, 51, 50, 42, 39, 38, 37, 35, 34, 33, 32, 30, 29, 26], [51, 50, 49, 48, 47, 46, 42, 41, 39, 36, 35, 32, 30, 23], [50, 49, 47, 46, 44, 41, 39, 37, 30, 28, 15], [51, 50, 49, 48, 46, 41, 39, 37, 35, 15], [80, 71, 56, 55, 50, 48, 46, 45, 42, 38, 35, 32, 26], [51, 48, 45, 42, 38, 37, 36, 34, 33, 32, 25], [71, 51, 47, 25, 22], [101, 56, 55, 51, 50, 49, 47, 37, 35, 31], [71, 56, 55, 52, 50, 49, 47, 45, 44, 42, 31], [80, 71, 65, 56, 55, 45, 42, 36, 32, 31], [101, 80, 71, 56, 51, 50, 47, 38, 35, 32], [59, 55, 54, 45, 41, 34, 26], [56, 54, 51, 50, 49, 48, 36, 34], [101, 71, 59, 57, 56, 54, 51, 50, 46, 42, 41, 38, 36], [101, 80, 71, 59, 56, 51, 50, 47, 44, 42, 38, 36], [54, 51, 50, 44, 32, 30], [80, 56, 55, 45, 44, 36, 31], [80, 71, 65, 60, 58, 56, 55, 45, 31], [65, 58, 54, 48, 38, 33], [67, 64, 59, 53, 52, 49, 46, 43, 39], [101, 79, 65, 58, 49, 47, 43, 36], [67, 60, 59, 58, 57, 53, 47, 46, 39], [100, 80, 73, 72, 71, 67, 64, 63, 55, 48, 43, 42], [100, 67, 64, 63, 62, 60, 58, 55, 53, 45, 43], [80, 79, 73, 67, 65, 63, 60, 59, 58, 57, 55, 52, 45], [79, 62, 59, 54, 43, 38], [98, 79, 72, 69, 67, 66, 64, 62, 59, 58, 53, 43], [101, 100, 80, 79, 72, 67, 62, 59, 55, 52, 43], [80, 73, 72, 69, 67, 66, 62, 52, 44, 43], [72, 67, 65, 63, 62, 60, 54, 52, 44], [96, 94, 77, 72, 70, 67, 66, 64, 63, 62, 60, 53, 52], [100, 95, 80, 77, 73, 72, 67, 66, 64, 62, 59, 57, 52], [100, 99, 98, 96, 94, 78, 75, 72, 69, 67, 66, 64, 63, 53], [100, 98, 97, 94, 80, 79, 78, 73, 70, 69, 65, 63, 62, 61], [97, 96, 80, 78, 77, 74, 72, 63, 62, 61, 60, 55], [98, 97, 96, 95, 94, 73, 72, 70, 66, 64, 63, 61], [97, 93, 75, 68, 66, 60, 58], [99, 97, 96, 95, 93, 86, 77, 76, 74, 61, 57], [98, 97, 96, 93, 86, 76, 58, 57], [101, 99, 98, 97, 96, 94, 90, 87, 85, 78, 77, 74, 72, 70, 66], [98, 97, 96, 94, 83, 79, 78, 72, 68, 66, 63], [99, 96, 94, 92, 91, 90, 88, 85, 82, 73, 72, 64], [101, 98, 95, 93, 76, 74, 70, 59], [100, 99, 96, 76, 73, 66, 57], [98, 95, 93, 91, 89, 85, 83, 81, 79, 65], [100, 97, 94, 92, 88, 86, 85, 61], [98, 97, 93, 86, 85, 74, 61], [97, 95, 85, 73, 61], [97, 90, 89, 86, 85, 84, 78, 70], [94, 91, 89, 88, 86, 84, 81, 69], [98, 92, 90, 87, 82, 78, 69], [94, 92, 89, 88, 87, 85, 68], [95, 94, 91, 90, 87, 77, 70], [96, 91, 88, 87, 86, 85, 68], [92, 89, 82, 81, 76, 69], [91, 90, 89, 87, 83, 68], [92, 89, 85, 84, 81, 75], [91, 90, 88, 85, 82, 81], [93, 89, 86, 81, 76], [96, 90, 86, 84, 76], [92, 86, 84, 82], [86, 84, 83, 81], [84, 82, 81], [95, 85, 83], [83, 82, 81], [89, 86, 83], [93, 86], [84, 83], [84, 81], [88, 82], [87], [83], [88], [82], [93], [102], [102], [102], [102], [102], [102], [102], [102], [102], [102], [102], [102], [102], [102], [102], [102], [102], [102], [102], [102], [102], []]
letting durations = [[0], [2, 5, 10], [3, 9, 10], [1, 4, 5], [2, 6, 10], [1, 1, 2], [1, 4, 10], [3, 6, 9], [3, 5, 10], [3, 4, 9], [1, 4, 8], [2, 9, 10], [2, 3, 9], [1, 2, 6], [3, 8, 10], [2, 7, 8], [1, 3, 5], [3, 6, 7], [1, 2, 5], [2, 4, 8], [1, 6, 7], [1, 7, 8], [4, 5, 10], [2, 6, 8], [4, 6, 7], [2, 3, 9], [1, 2, 5], [3, 5, 9], [6, 8, 9], [5, 6, 8], [7, 8, 8], [1, 3, 10], [7, 8, 9], [7, 9, 10], [1, 2, 6], [1, 5, 7], [1, 4, 9], [2, 5, 8], [4, 9, 10], [4, 7, 9], [5, 9, 10], [1, 3, 9], [1, 6, 8], [1, 6, 6], [6, 7, 10], [2, 8, 10], [1, 7, 8], [1, 6, 10], [1, 5, 6], [3, 4, 5], [1, 2, 4], [1, 5, 10], [2, 6, 7], [1, 4, 10], [7, 8, 10], [3, 9, 10], [3, 6, 7], [5, 6, 8], [1, 2, 7], [1, 7, 8], [1, 2, 5], [2, 4, 6], [1, 6, 9], [4, 5, 8], [4, 5, 9], [3, 6, 10], [3, 7, 9], [4, 5, 8], [6, 8, 10], [4, 4, 7], [2, 3, 8], [2, 7, 8], [1, 5, 9], [1, 5, 8], [1, 5, 8], [4, 6, 7], [2, 7, 9], [1, 3, 4], [4, 4, 5], [1, 5, 5], [2, 4, 6], [5, 7, 10], [2, 4, 8], [7, 10, 10], [4, 4, 6], [2, 5, 6], [4, 4, 7], [4, 4, 9], [4, 5, 7], [4, 8, 9], [4, 7, 8], [2, 7, 10], [3, 4, 9], [1, 4, 7], [5, 9, 10], [2, 3, 7], [3, 4, 7], [6, 9, 10], [2, 3, 7], [1, 2, 3], [4, 7, 8], [0]]
letting resourceUsage = [[[0, 0, 0, 0]], [[3, 0, 4, 7], [0, 2, 4, 6], [2, 0, 3, 5]], [[0, 2, 6, 3], [3, 0, 5, 2], [0, 2, 4, 1]], [[0, 2, 8, 9], [0, 2, 5, 8], [0, 2, 4, 7]], [[2, 0, 4, 7], [0, 1, 3, 7], [0, 1, 1, 5]], [[0, 3, 6, 8], [4, 0, 6, 6], [0, 3, 5, 5]], [[0, 1, 8, 6], [0, 1, 4, 6], [2, 0, 3, 4]], [[0, 5, 9, 9], [3, 0, 4, 8], [0, 5, 3, 6]], [[4, 0, 8, 4], [3, 0, 7, 4], [3, 0, 5, 3]], [[0, 4, 9, 3], [5, 0, 3, 3], [5, 0, 2, 2]], [[5, 0, 8, 8], [0, 5, 5, 5], [3, 0, 2, 3]], [[2, 0, 7, 9], [1, 0, 7, 8], [0, 3, 7, 8]], [[0, 3, 8, 7], [0, 3, 7, 4], [0, 3, 5, 4]], [[0, 3, 9, 8], [3, 0, 8, 4], [3, 0, 8, 3]], [[0, 3, 6, 7], [0, 2, 6, 6], [0, 2, 5, 4]], [[0, 4, 5, 8], [0, 2, 4, 7], [0, 2, 3, 4]], [[1, 0, 2, 5], [0, 3, 1, 5], [0, 1, 1, 5]], [[0, 1, 3, 9], [3, 0, 3, 9], [3, 0, 3, 8]], [[0, 4, 6, 5], [0, 3, 4, 5], [3, 0, 4, 1]], [[2, 0, 5, 7], [0, 2, 5, 7], [2, 0, 2, 7]], [[3, 0, 7, 4], [1, 0, 7, 4], [0, 3, 5, 3]], [[0, 4, 9, 3], [0, 4, 9, 2], [0, 4, 9, 1]], [[0, 3, 7, 6], [0, 3, 5, 5], [0, 2, 3, 5]], [[1, 0, 3, 8], [1, 0, 3, 7], [0, 1, 3, 6]], [[0, 4, 3, 9], [1, 0, 2, 8], [0, 4, 2, 8]], [[4, 0, 4, 5], [4, 0, 4, 4], [4, 0, 4, 3]], [[0, 1, 3, 8], [0, 1, 3, 7], [0, 1, 3, 6]], [[2, 0, 10, 5], [0, 2, 9, 4], [0, 1, 9, 2]], [[5, 0, 9, 10], [0, 2, 8, 10], [2, 0, 7, 10]], [[4, 0, 6, 1], [0, 4, 5, 2], [0, 4, 5, 1]], [[3, 0, 5, 10], [0, 1, 3, 10], [3, 0, 2, 10]], [[0, 4, 9, 8], [2, 0, 8, 5], [1, 0, 7, 2]], [[0, 2, 3, 5], [0, 2, 2, 4], [0, 2, 2, 1]], [[0, 4, 5, 8], [0, 4, 4, 8], [2, 0, 3, 7]], [[0, 2, 1, 8], [0, 2, 1, 7], [0, 1, 1, 7]], [[4, 0, 8, 5], [0, 3, 8, 5], [1, 0, 8, 5]], [[5, 0, 3, 8], [4, 0, 3, 6], [3, 0, 1, 5]], [[2, 0, 9, 7], [0, 4, 8, 7], [1, 0, 4, 6]], [[2, 0, 8, 2], [0, 3, 7, 2], [2, 0, 5, 1]], [[5, 0, 4, 8], [0, 1, 3, 3], [0, 1, 2, 2]], [[5, 0, 5, 9], [0, 3, 4, 5], [0, 1, 2, 4]], [[3, 0, 8, 6], [2, 0, 8, 6], [2, 0, 7, 2]], [[4, 0, 4, 4], [0, 3, 2, 2], [0, 3, 2, 1]], [[3, 0, 5, 3], [0, 4, 3, 2], [2, 0, 2, 2]], [[0, 5, 1, 7], [0, 4, 1, 5], [0, 4, 1, 2]], [[4, 0, 10, 4], [4, 0, 7, 2], [0, 1, 6, 1]], [[2, 0, 7, 6], [0, 2, 6, 5], [1, 0, 5, 4]], [[0, 3, 8, 6], [0, 1, 7, 5], [3, 0, 6, 3]], [[0, 1, 10, 2], [0, 1, 8, 2], [2, 0, 8, 2]], [[4, 0, 3, 10], [4, 0, 3, 9], [3, 0, 3, 9]], [[0, 2, 8, 9], [0, 1, 6, 8], [2, 0, 6, 6]], [[4, 0, 8, 8], [4, 0, 5, 6], [4, 0, 5, 4]], [[0, 3, 8, 5], [0, 1, 8, 4], [1, 0, 7, 4]], [[0, 4, 8, 8], [0, 2, 4, 8], [1, 0, 2, 8]], [[3, 0, 4, 5], [0, 3, 4, 4], [0, 2, 4, 4]], [[0, 1, 7, 9], [0, 1, 5, 5], [0, 1, 5, 4]], [[2, 0, 7, 5], [0, 4, 7, 2], [0, 2, 5, 1]], [[4, 0, 3, 10], [4, 0, 1, 5], [0, 1, 1, 2]], [[1, 0, 8, 5], [1, 0, 6, 3], [0, 1, 3, 2]], [[0, 3, 3, 1], [1, 0, 2, 1], [0, 2, 2, 1]], [[0, 1, 2, 8], [4, 0, 2, 8], [0, 1, 2, 7]], [[4, 0, 3, 8], [0, 2, 3, 7], [0, 2, 2, 4]], [[4, 0, 4, 7], [3, 0, 2, 7], [0, 1, 2, 7]], [[3, 0, 5, 8], [3, 0, 4, 5], [0, 2, 2, 3]], [[0, 5, 6, 9], [0, 4, 5, 8], [5, 0, 5, 6]], [[0, 1, 6, 9], [0, 1, 4, 8], [2, 0, 1, 7]], [[0, 3, 5, 3], [0, 3, 5, 2], [3, 0, 5, 3]], [[0, 4, 2, 3], [0, 4, 2, 1], [0, 3, 2, 1]], [[4, 0, 1, 7], [3, 0, 1, 5], [0, 1, 1, 3]], [[0, 5, 5, 6], [3, 0, 4, 4], [3, 0, 2, 4]], [[0, 3, 4, 8], [0, 3, 3, 7], [0, 2, 2, 7]], [[1, 0, 2, 1], [0, 3, 2, 2], [0, 3, 2, 1]], [[0, 1, 9, 5], [3, 0, 7, 4], [2, 0, 4, 3]], [[0, 2, 7, 9], [4, 0, 5, 9], [0, 1, 5, 9]], [[0, 5, 7, 9], [2, 0, 7, 9], [1, 0, 6, 8]], [[2, 0, 3, 8], [2, 0, 2, 7], [0, 3, 2, 7]], [[4, 0, 5, 10], [3, 0, 2, 9], [0, 3, 1, 8]], [[0, 4, 4, 8], [0, 4, 3, 6], [0, 3, 2, 6]], [[4, 0, 1, 2], [0, 3, 1, 2], [0, 2, 1, 2]], [[4, 0, 4, 7], [0, 2, 2, 5], [2, 0, 2, 3]], [[4, 0, 2, 5], [0, 3, 2, 5], [0, 3, 2, 4]], [[4, 0, 6, 5], [0, 5, 5, 4], [3, 0, 5, 1]], [[2, 0, 10, 9], [2, 0, 7, 8], [1, 0, 7, 7]], [[0, 2, 7, 8], [0, 1, 6, 3], [3, 0, 5, 2]], [[0, 3, 2, 8], [2, 0, 1, 7], [2, 0, 1, 4]], [[4, 0, 2, 4], [2, 0, 2, 3], [2, 0, 1, 2]], [[4, 0, 7, 8], [0, 3, 5, 7], [2, 0, 5, 5]], [[0, 3, 6, 6], [2, 0, 4, 4], [2, 0, 4, 2]], [[0, 2, 7, 7], [0, 1, 3, 4], [0, 1, 3, 3]], [[3, 0, 5, 7], [0, 4, 5, 8], [0, 4, 5, 7]], [[0, 4, 5, 6], [2, 0, 5, 5], [0, 2, 3, 5]], [[0, 4, 8, 9], [0, 3, 5, 4], [2, 0, 2, 3]], [[0, 1, 10, 10], [0, 1, 9, 8], [0, 1, 9, 7]], [[0, 4, 10, 2], [0, 3, 6, 2], [4, 0, 6, 1]], [[0, 5, 4, 3], [0, 4, 4, 3], [2, 0, 2, 3]], [[3, 0, 7, 9], [0, 2, 6, 4], [2, 0, 6, 2]], [[0, 4, 8, 2], [0, 3, 5, 2], [0, 2, 1, 2]], [[2, 0, 8, 5], [0, 3, 7, 4], [2, 0, 6, 4]], [[0, 3, 9, 4], [0, 1, 8, 2], [2, 0, 7, 2]], [[0, 4, 7, 7], [2, 0, 6, 8], [2, 0, 6, 7]], [[3, 0, 5, 5], [0, 3, 5, 4], [3, 0, 5, 4]], [[0, 0, 0, 0]]]
